\* The Army Diet Problem - Full all menu options with independently researched constraints *\
Minimize
Total_Cost: 0.31 _u"Cap'N_Crunch"_ + 0.28 _u"Corn_Flks,_Kellogg'S"_
 + 0.34 _u"Raisin_Brn,_Kellg'S"_ + 0.23 _u'2%_Lowfat_Milk'_
 + 0.16 _u'3.3%_Fat,Whole_Milk'_ + 0.24 _u'Apple,Raw,W_Skin'_
 + 0.16 _u'Apple_Pie'_ + 0.16 _u'Bagels'_ + 0.15 _u'Banana'_
 + 0.67 _u'Beanbacn_Soup,W_Watr'_ + 0.15 _u'Bologna,Turkey'_
 + 0.05 _u'Butter,Regular'_ + 0.07 _u'Carrots,Raw'_ + 0.04 _u'Celery,_Raw'_
 + 0.25 _u'Cheddar_Cheese'_ + 0.28 _u'Cheerios'_ + 0.39 _u'Chicknoodl_Soup'_
 + 0.03 _u'Chocolate_Chip_Cookies'_ + 0.39 _u'Couscous'_
 + 0.65 _u'Crm_Mshrm_Soup,W_Mlk'_ + 0.27 _u'Frankfurter,_Beef'_
 + 0.16 _u'Frozen_Broccoli'_ + 0.18 _u'Frozen_Corn'_ + 0.32 _u'Grapes'_
 + 0.33 _u'Ham,Sliced,Extralean'_ + 0.83 _u'Hamburger_W_Toppings'_
 + 0.31 _u'Hotdog,_Plain'_ + 0.15 _u'Kielbasa,Prk'_
 + 0.49 _u'Kiwifruit,Raw,Fresh'_ + 0.02 _u'Lettuce,Iceberg,Raw'_
 + 0.17 _u'Macaroni,Ckd'_ + 0.52 _u'Malt_O_Meal,Choc'_
 + 0.99 _u'New_E_Clamchwd,W_Mlk'_ + 0.75 _u'Neweng_Clamchwd'_
 + 0.82 _u'Oatmeal'_ + 0.09 _u'Oatmeal_Cookies'_ + 0.15 _u'Oranges'_
 + 0.07 _u'Peanut_Butter'_ + 0.53 _u'Peppers,_Sweet,_Raw'_
 + 0.44 _u'Pizza_W_Pepperoni'_ + 0.08 _u'Poached_Eggs'_
 + 0.04 _u'Popcorn,Air_Popped'_ + 0.81 _u'Pork'_
 + 0.22 _u'Potato_Chips,Bbqflvr'_ + 0.06 _u'Potatoes,_Baked'_
 + 0.12 _u'Pretzels'_ + 0.32 _u'Rice_Krispies'_ + 0.84 _u'Roasted_Chicken'_
 + 0.45 _u'Sardines_in_Oil'_ + 0.11 _u'Scrambled_Eggs'_ + 0.13 _u'Skim_Milk'_
 + 0.78 _u'Spaghetti_W__Sauce'_ + 0.38 _u'Special_K'_
 + 0.67 _u'Splt_Pea&Hamsoup'_ + 0.59 _u'Taco'_ + 0.31 _u'Tofu'_
 + 0.27 _u'Tomato,Red,Ripe,Raw'_ + 0.39 _u'Tomato_Soup'_
 + 0.19 _u'Tortilla_Chip'_ + 0.71 _u'Vegetbeef_Soup'_ + 0.05 _u'Wheat_Bread'_
 + 0.06 _u'White_Bread'_ + 0.08 _u'White_Rice'_
 + 0.69 _u'White_Tuna_in_Water'_
Subject To
CalciumMax: 4.8 _u"Cap'N_Crunch"_ + 0.9 _u"Corn_Flks,_Kellogg'S"_
 + 12.9 _u"Raisin_Brn,_Kellg'S"_ + 296.7 _u'2%_Lowfat_Milk'_
 + 291.3 _u'3.3%_Fat,Whole_Milk'_ + 9.7 _u'Apple,Raw,W_Skin'_
 + 3.1 _u'Apple_Pie'_ + 21 _u'Bagels'_ + 6.8 _u'Banana'_
 + 81 _u'Beanbacn_Soup,W_Watr'_ + 23.8 _u'Bologna,Turkey'_
 + 1.2 _u'Butter,Regular'_ + 14.9 _u'Carrots,Raw'_ + 16 _u'Celery,_Raw'_
 + 202 _u'Cheddar_Cheese'_ + 48.6 _u'Cheerios'_ + 27.1 _u'Chicknoodl_Soup'_
 + 6.2 _u'Chocolate_Chip_Cookies'_ + 7.2 _u'Couscous'_
 + 178.6 _u'Crm_Mshrm_Soup,W_Mlk'_ + 9 _u'Frankfurter,_Beef'_
 + 159 _u'Frozen_Broccoli'_ + 3.3 _u'Frozen_Corn'_ + 3.4 _u'Grapes'_
 + 2 _u'Ham,Sliced,Extralean'_ + 51.4 _u'Hamburger_W_Toppings'_
 + 23.5 _u'Hotdog,_Plain'_ + 11.4 _u'Kielbasa,Prk'_
 + 19.8 _u'Kiwifruit,Raw,Fresh'_ + 3.8 _u'Lettuce,Iceberg,Raw'_
 + 4.9 _u'Macaroni,Ckd'_ + 23.1 _u'Malt_O_Meal,Choc'_
 + 186 _u'New_E_Clamchwd,W_Mlk'_ + 82.8 _u'Neweng_Clamchwd'_
 + 18.7 _u'Oatmeal'_ + 6.7 _u'Oatmeal_Cookies'_ + 52.4 _u'Oranges'_
 + 13.1 _u'Peanut_Butter'_ + 6.7 _u'Peppers,_Sweet,_Raw'_
 + 64.6 _u'Pizza_W_Pepperoni'_ + 24.5 _u'Poached_Eggs'_
 + 2.8 _u'Popcorn,Air_Popped'_ + 59.9 _u'Pork'_
 + 14.2 _u'Potato_Chips,Bbqflvr'_ + 22.7 _u'Potatoes,_Baked'_
 + 10.2 _u'Pretzels'_ + 4 _u'Rice_Krispies'_ + 21.9 _u'Roasted_Chicken'_
 + 91.7 _u'Sardines_in_Oil'_ + 42.6 _u'Scrambled_Eggs'_ + 302.3 _u'Skim_Milk'_
 + 80.2 _u'Spaghetti_W__Sauce'_ + 8.2 _u'Special_K'_
 + 33.6 _u'Splt_Pea&Hamsoup'_ + 220.6 _u'Taco'_ + 121.8 _u'Tofu'_
 + 6.2 _u'Tomato,Red,Ripe,Raw'_ + 27.6 _u'Tomato_Soup'_
 + 43.7 _u'Tortilla_Chip'_ + 32.6 _u'Vegetbeef_Soup'_ + 10.8 _u'Wheat_Bread'_
 + 26.2 _u'White_Bread'_ + 7.9 _u'White_Rice'_ + 3.4 _u'White_Tuna_in_Water'_
 <= 2500
CalciumMin: 4.8 _u"Cap'N_Crunch"_ + 0.9 _u"Corn_Flks,_Kellogg'S"_
 + 12.9 _u"Raisin_Brn,_Kellg'S"_ + 296.7 _u'2%_Lowfat_Milk'_
 + 291.3 _u'3.3%_Fat,Whole_Milk'_ + 9.7 _u'Apple,Raw,W_Skin'_
 + 3.1 _u'Apple_Pie'_ + 21 _u'Bagels'_ + 6.8 _u'Banana'_
 + 81 _u'Beanbacn_Soup,W_Watr'_ + 23.8 _u'Bologna,Turkey'_
 + 1.2 _u'Butter,Regular'_ + 14.9 _u'Carrots,Raw'_ + 16 _u'Celery,_Raw'_
 + 202 _u'Cheddar_Cheese'_ + 48.6 _u'Cheerios'_ + 27.1 _u'Chicknoodl_Soup'_
 + 6.2 _u'Chocolate_Chip_Cookies'_ + 7.2 _u'Couscous'_
 + 178.6 _u'Crm_Mshrm_Soup,W_Mlk'_ + 9 _u'Frankfurter,_Beef'_
 + 159 _u'Frozen_Broccoli'_ + 3.3 _u'Frozen_Corn'_ + 3.4 _u'Grapes'_
 + 2 _u'Ham,Sliced,Extralean'_ + 51.4 _u'Hamburger_W_Toppings'_
 + 23.5 _u'Hotdog,_Plain'_ + 11.4 _u'Kielbasa,Prk'_
 + 19.8 _u'Kiwifruit,Raw,Fresh'_ + 3.8 _u'Lettuce,Iceberg,Raw'_
 + 4.9 _u'Macaroni,Ckd'_ + 23.1 _u'Malt_O_Meal,Choc'_
 + 186 _u'New_E_Clamchwd,W_Mlk'_ + 82.8 _u'Neweng_Clamchwd'_
 + 18.7 _u'Oatmeal'_ + 6.7 _u'Oatmeal_Cookies'_ + 52.4 _u'Oranges'_
 + 13.1 _u'Peanut_Butter'_ + 6.7 _u'Peppers,_Sweet,_Raw'_
 + 64.6 _u'Pizza_W_Pepperoni'_ + 24.5 _u'Poached_Eggs'_
 + 2.8 _u'Popcorn,Air_Popped'_ + 59.9 _u'Pork'_
 + 14.2 _u'Potato_Chips,Bbqflvr'_ + 22.7 _u'Potatoes,_Baked'_
 + 10.2 _u'Pretzels'_ + 4 _u'Rice_Krispies'_ + 21.9 _u'Roasted_Chicken'_
 + 91.7 _u'Sardines_in_Oil'_ + 42.6 _u'Scrambled_Eggs'_ + 302.3 _u'Skim_Milk'_
 + 80.2 _u'Spaghetti_W__Sauce'_ + 8.2 _u'Special_K'_
 + 33.6 _u'Splt_Pea&Hamsoup'_ + 220.6 _u'Taco'_ + 121.8 _u'Tofu'_
 + 6.2 _u'Tomato,Red,Ripe,Raw'_ + 27.6 _u'Tomato_Soup'_
 + 43.7 _u'Tortilla_Chip'_ + 32.6 _u'Vegetbeef_Soup'_ + 10.8 _u'Wheat_Bread'_
 + 26.2 _u'White_Bread'_ + 7.9 _u'White_Rice'_ + 3.4 _u'White_Tuna_in_Water'_
 >= 1000
CaloriesMax: 119.6 _u"Cap'N_Crunch"_ + 110.5 _u"Corn_Flks,_Kellogg'S"_
 + 115.1 _u"Raisin_Brn,_Kellg'S"_ + 121.2 _u'2%_Lowfat_Milk'_
 + 149.9 _u'3.3%_Fat,Whole_Milk'_ + 81.4 _u'Apple,Raw,W_Skin'_
 + 67.2 _u'Apple_Pie'_ + 78 _u'Bagels'_ + 104.9 _u'Banana'_
 + 172 _u'Beanbacn_Soup,W_Watr'_ + 56.4 _u'Bologna,Turkey'_
 + 35.8 _u'Butter,Regular'_ + 23.7 _u'Carrots,Raw'_ + 6.4 _u'Celery,_Raw'_
 + 112.7 _u'Cheddar_Cheese'_ + 111 _u'Cheerios'_ + 150.1 _u'Chicknoodl_Soup'_
 + 78.1 _u'Chocolate_Chip_Cookies'_ + 100.8 _u'Couscous'_
 + 203.4 _u'Crm_Mshrm_Soup,W_Mlk'_ + 141.8 _u'Frankfurter,_Beef'_
 + 73.8 _u'Frozen_Broccoli'_ + 72.2 _u'Frozen_Corn'_ + 15.1 _u'Grapes'_
 + 37.1 _u'Ham,Sliced,Extralean'_ + 275 _u'Hamburger_W_Toppings'_
 + 242.1 _u'Hotdog,_Plain'_ + 80.6 _u'Kielbasa,Prk'_
 + 46.4 _u'Kiwifruit,Raw,Fresh'_ + 2.6 _u'Lettuce,Iceberg,Raw'_
 + 98.7 _u'Macaroni,Ckd'_ + 607.2 _u'Malt_O_Meal,Choc'_
 + 163.7 _u'New_E_Clamchwd,W_Mlk'_ + 175.7 _u'Neweng_Clamchwd'_
 + 145.1 _u'Oatmeal'_ + 81 _u'Oatmeal_Cookies'_ + 61.6 _u'Oranges'_
 + 188.5 _u'Peanut_Butter'_ + 20 _u'Peppers,_Sweet,_Raw'_
 + 181 _u'Pizza_W_Pepperoni'_ + 74.5 _u'Poached_Eggs'_
 + 108.3 _u'Popcorn,Air_Popped'_ + 710.8 _u'Pork'_
 + 139.2 _u'Potato_Chips,Bbqflvr'_ + 171.5 _u'Potatoes,_Baked'_
 + 108 _u'Pretzels'_ + 112.2 _u'Rice_Krispies'_ + 277.4 _u'Roasted_Chicken'_
 + 49.9 _u'Sardines_in_Oil'_ + 99.6 _u'Scrambled_Eggs'_ + 85.5 _u'Skim_Milk'_
 + 358.2 _u'Spaghetti_W__Sauce'_ + 110.8 _u'Special_K'_
 + 184.8 _u'Splt_Pea&Hamsoup'_ + 369.4 _u'Taco'_ + 88.2 _u'Tofu'_
 + 25.8 _u'Tomato,Red,Ripe,Raw'_ + 170.7 _u'Tomato_Soup'_
 + 142 _u'Tortilla_Chip'_ + 158.1 _u'Vegetbeef_Soup'_ + 65 _u'Wheat_Bread'_
 + 65 _u'White_Bread'_ + 102.7 _u'White_Rice'_
 + 115.6 _u'White_Tuna_in_Water'_ <= 2500
CaloriesMin: 119.6 _u"Cap'N_Crunch"_ + 110.5 _u"Corn_Flks,_Kellogg'S"_
 + 115.1 _u"Raisin_Brn,_Kellg'S"_ + 121.2 _u'2%_Lowfat_Milk'_
 + 149.9 _u'3.3%_Fat,Whole_Milk'_ + 81.4 _u'Apple,Raw,W_Skin'_
 + 67.2 _u'Apple_Pie'_ + 78 _u'Bagels'_ + 104.9 _u'Banana'_
 + 172 _u'Beanbacn_Soup,W_Watr'_ + 56.4 _u'Bologna,Turkey'_
 + 35.8 _u'Butter,Regular'_ + 23.7 _u'Carrots,Raw'_ + 6.4 _u'Celery,_Raw'_
 + 112.7 _u'Cheddar_Cheese'_ + 111 _u'Cheerios'_ + 150.1 _u'Chicknoodl_Soup'_
 + 78.1 _u'Chocolate_Chip_Cookies'_ + 100.8 _u'Couscous'_
 + 203.4 _u'Crm_Mshrm_Soup,W_Mlk'_ + 141.8 _u'Frankfurter,_Beef'_
 + 73.8 _u'Frozen_Broccoli'_ + 72.2 _u'Frozen_Corn'_ + 15.1 _u'Grapes'_
 + 37.1 _u'Ham,Sliced,Extralean'_ + 275 _u'Hamburger_W_Toppings'_
 + 242.1 _u'Hotdog,_Plain'_ + 80.6 _u'Kielbasa,Prk'_
 + 46.4 _u'Kiwifruit,Raw,Fresh'_ + 2.6 _u'Lettuce,Iceberg,Raw'_
 + 98.7 _u'Macaroni,Ckd'_ + 607.2 _u'Malt_O_Meal,Choc'_
 + 163.7 _u'New_E_Clamchwd,W_Mlk'_ + 175.7 _u'Neweng_Clamchwd'_
 + 145.1 _u'Oatmeal'_ + 81 _u'Oatmeal_Cookies'_ + 61.6 _u'Oranges'_
 + 188.5 _u'Peanut_Butter'_ + 20 _u'Peppers,_Sweet,_Raw'_
 + 181 _u'Pizza_W_Pepperoni'_ + 74.5 _u'Poached_Eggs'_
 + 108.3 _u'Popcorn,Air_Popped'_ + 710.8 _u'Pork'_
 + 139.2 _u'Potato_Chips,Bbqflvr'_ + 171.5 _u'Potatoes,_Baked'_
 + 108 _u'Pretzels'_ + 112.2 _u'Rice_Krispies'_ + 277.4 _u'Roasted_Chicken'_
 + 49.9 _u'Sardines_in_Oil'_ + 99.6 _u'Scrambled_Eggs'_ + 85.5 _u'Skim_Milk'_
 + 358.2 _u'Spaghetti_W__Sauce'_ + 110.8 _u'Special_K'_
 + 184.8 _u'Splt_Pea&Hamsoup'_ + 369.4 _u'Taco'_ + 88.2 _u'Tofu'_
 + 25.8 _u'Tomato,Red,Ripe,Raw'_ + 170.7 _u'Tomato_Soup'_
 + 142 _u'Tortilla_Chip'_ + 158.1 _u'Vegetbeef_Soup'_ + 65 _u'Wheat_Bread'_
 + 65 _u'White_Bread'_ + 102.7 _u'White_Rice'_
 + 115.6 _u'White_Tuna_in_Water'_ >= 2000
CarbohydratesMax: 23 _u"Cap'N_Crunch"_ + 24.5 _u"Corn_Flks,_Kellogg'S"_
 + 27.9 _u"Raisin_Brn,_Kellg'S"_ + 11.7 _u'2%_Lowfat_Milk'_
 + 11.4 _u'3.3%_Fat,Whole_Milk'_ + 21 _u'Apple,Raw,W_Skin'_
 + 9.6 _u'Apple_Pie'_ + 15.1 _u'Bagels'_ + 26.7 _u'Banana'_
 + 22.8 _u'Beanbacn_Soup,W_Watr'_ + 0.3 _u'Bologna,Turkey'_
 + 5.6 _u'Carrots,Raw'_ + 1.5 _u'Celery,_Raw'_ + 0.4 _u'Cheddar_Cheese'_
 + 19.6 _u'Cheerios'_ + 18.7 _u'Chicknoodl_Soup'_
 + 9.3 _u'Chocolate_Chip_Cookies'_ + 20.9 _u'Couscous'_
 + 15 _u'Crm_Mshrm_Soup,W_Mlk'_ + 0.8 _u'Frankfurter,_Beef'_
 + 13.6 _u'Frozen_Broccoli'_ + 17.1 _u'Frozen_Corn'_ + 4.1 _u'Grapes'_
 + 0.3 _u'Ham,Sliced,Extralean'_ + 32.7 _u'Hamburger_W_Toppings'_
 + 18 _u'Hotdog,_Plain'_ + 0.6 _u'Kielbasa,Prk'_
 + 11.3 _u'Kiwifruit,Raw,Fresh'_ + 0.4 _u'Lettuce,Iceberg,Raw'_
 + 19.8 _u'Macaroni,Ckd'_ + 128.2 _u'Malt_O_Meal,Choc'_
 + 16.6 _u'New_E_Clamchwd,W_Mlk'_ + 21.8 _u'Neweng_Clamchwd'_
 + 25.3 _u'Oatmeal'_ + 12.4 _u'Oatmeal_Cookies'_ + 15.4 _u'Oranges'_
 + 6.9 _u'Peanut_Butter'_ + 4.8 _u'Peppers,_Sweet,_Raw'_
 + 19.9 _u'Pizza_W_Pepperoni'_ + 0.6 _u'Poached_Eggs'_
 + 22.1 _u'Popcorn,Air_Popped'_ + 15 _u'Potato_Chips,Bbqflvr'_
 + 39.9 _u'Potatoes,_Baked'_ + 22.5 _u'Pretzels'_ + 24.8 _u'Rice_Krispies'_
 + 1.3 _u'Scrambled_Eggs'_ + 11.9 _u'Skim_Milk'_
 + 58.3 _u'Spaghetti_W__Sauce'_ + 21.3 _u'Special_K'_
 + 26.8 _u'Splt_Pea&Hamsoup'_ + 26.7 _u'Taco'_ + 2.2 _u'Tofu'_
 + 5.7 _u'Tomato,Red,Ripe,Raw'_ + 33.2 _u'Tomato_Soup'_
 + 17.8 _u'Tortilla_Chip'_ + 20.4 _u'Vegetbeef_Soup'_ + 12.4 _u'Wheat_Bread'_
 + 11.8 _u'White_Bread'_ + 22.3 _u'White_Rice'_ <= 325
CarbohydratesMin: 23 _u"Cap'N_Crunch"_ + 24.5 _u"Corn_Flks,_Kellogg'S"_
 + 27.9 _u"Raisin_Brn,_Kellg'S"_ + 11.7 _u'2%_Lowfat_Milk'_
 + 11.4 _u'3.3%_Fat,Whole_Milk'_ + 21 _u'Apple,Raw,W_Skin'_
 + 9.6 _u'Apple_Pie'_ + 15.1 _u'Bagels'_ + 26.7 _u'Banana'_
 + 22.8 _u'Beanbacn_Soup,W_Watr'_ + 0.3 _u'Bologna,Turkey'_
 + 5.6 _u'Carrots,Raw'_ + 1.5 _u'Celery,_Raw'_ + 0.4 _u'Cheddar_Cheese'_
 + 19.6 _u'Cheerios'_ + 18.7 _u'Chicknoodl_Soup'_
 + 9.3 _u'Chocolate_Chip_Cookies'_ + 20.9 _u'Couscous'_
 + 15 _u'Crm_Mshrm_Soup,W_Mlk'_ + 0.8 _u'Frankfurter,_Beef'_
 + 13.6 _u'Frozen_Broccoli'_ + 17.1 _u'Frozen_Corn'_ + 4.1 _u'Grapes'_
 + 0.3 _u'Ham,Sliced,Extralean'_ + 32.7 _u'Hamburger_W_Toppings'_
 + 18 _u'Hotdog,_Plain'_ + 0.6 _u'Kielbasa,Prk'_
 + 11.3 _u'Kiwifruit,Raw,Fresh'_ + 0.4 _u'Lettuce,Iceberg,Raw'_
 + 19.8 _u'Macaroni,Ckd'_ + 128.2 _u'Malt_O_Meal,Choc'_
 + 16.6 _u'New_E_Clamchwd,W_Mlk'_ + 21.8 _u'Neweng_Clamchwd'_
 + 25.3 _u'Oatmeal'_ + 12.4 _u'Oatmeal_Cookies'_ + 15.4 _u'Oranges'_
 + 6.9 _u'Peanut_Butter'_ + 4.8 _u'Peppers,_Sweet,_Raw'_
 + 19.9 _u'Pizza_W_Pepperoni'_ + 0.6 _u'Poached_Eggs'_
 + 22.1 _u'Popcorn,Air_Popped'_ + 15 _u'Potato_Chips,Bbqflvr'_
 + 39.9 _u'Potatoes,_Baked'_ + 22.5 _u'Pretzels'_ + 24.8 _u'Rice_Krispies'_
 + 1.3 _u'Scrambled_Eggs'_ + 11.9 _u'Skim_Milk'_
 + 58.3 _u'Spaghetti_W__Sauce'_ + 21.3 _u'Special_K'_
 + 26.8 _u'Splt_Pea&Hamsoup'_ + 26.7 _u'Taco'_ + 2.2 _u'Tofu'_
 + 5.7 _u'Tomato,Red,Ripe,Raw'_ + 33.2 _u'Tomato_Soup'_
 + 17.8 _u'Tortilla_Chip'_ + 20.4 _u'Vegetbeef_Soup'_ + 12.4 _u'Wheat_Bread'_
 + 11.8 _u'White_Bread'_ + 22.3 _u'White_Rice'_ >= 225
CholesterolMax: 18.3 _u'2%_Lowfat_Milk'_ + 33.2 _u'3.3%_Fat,Whole_Milk'_
 + 2.5 _u'Beanbacn_Soup,W_Watr'_ + 28.1 _u'Bologna,Turkey'_
 + 10.9 _u'Butter,Regular'_ + 29.4 _u'Cheddar_Cheese'_
 + 12.3 _u'Chicknoodl_Soup'_ + 5.1 _u'Chocolate_Chip_Cookies'_
 + 19.8 _u'Crm_Mshrm_Soup,W_Mlk'_ + 27.4 _u'Frankfurter,_Beef'_
 + 13.3 _u'Ham,Sliced,Extralean'_ + 42.8 _u'Hamburger_W_Toppings'_
 + 44.1 _u'Hotdog,_Plain'_ + 17.4 _u'Kielbasa,Prk'_
 + 22.3 _u'New_E_Clamchwd,W_Mlk'_ + 10 _u'Neweng_Clamchwd'_
 + 14.2 _u'Pizza_W_Pepperoni'_ + 211.5 _u'Poached_Eggs'_ + 105.1 _u'Pork'_
 + 129.9 _u'Roasted_Chicken'_ + 34.1 _u'Sardines_in_Oil'_
 + 211.2 _u'Scrambled_Eggs'_ + 4.4 _u'Skim_Milk'_ + 7.2 _u'Splt_Pea&Hamsoup'_
 + 56.4 _u'Taco'_ + 10 _u'Vegetbeef_Soup'_ + 35.7 _u'White_Tuna_in_Water'_
 <= 300
CholesterolMin: 18.3 _u'2%_Lowfat_Milk'_ + 33.2 _u'3.3%_Fat,Whole_Milk'_
 + 2.5 _u'Beanbacn_Soup,W_Watr'_ + 28.1 _u'Bologna,Turkey'_
 + 10.9 _u'Butter,Regular'_ + 29.4 _u'Cheddar_Cheese'_
 + 12.3 _u'Chicknoodl_Soup'_ + 5.1 _u'Chocolate_Chip_Cookies'_
 + 19.8 _u'Crm_Mshrm_Soup,W_Mlk'_ + 27.4 _u'Frankfurter,_Beef'_
 + 13.3 _u'Ham,Sliced,Extralean'_ + 42.8 _u'Hamburger_W_Toppings'_
 + 44.1 _u'Hotdog,_Plain'_ + 17.4 _u'Kielbasa,Prk'_
 + 22.3 _u'New_E_Clamchwd,W_Mlk'_ + 10 _u'Neweng_Clamchwd'_
 + 14.2 _u'Pizza_W_Pepperoni'_ + 211.5 _u'Poached_Eggs'_ + 105.1 _u'Pork'_
 + 129.9 _u'Roasted_Chicken'_ + 34.1 _u'Sardines_in_Oil'_
 + 211.2 _u'Scrambled_Eggs'_ + 4.4 _u'Skim_Milk'_ + 7.2 _u'Splt_Pea&Hamsoup'_
 + 56.4 _u'Taco'_ + 10 _u'Vegetbeef_Soup'_ + 35.7 _u'White_Tuna_in_Water'_
 >= 30
DietaryFiberMax: 0.5 _u"Cap'N_Crunch"_ + 0.7 _u"Corn_Flks,_Kellogg'S"_
 + 4 _u"Raisin_Brn,_Kellg'S"_ + 3.7 _u'Apple,Raw,W_Skin'_ + 0.5 _u'Apple_Pie'_
 + 0.6 _u'Bagels'_ + 2.7 _u'Banana'_ + 8.6 _u'Beanbacn_Soup,W_Watr'_
 + 1.6 _u'Carrots,Raw'_ + 0.7 _u'Celery,_Raw'_ + 2 _u'Cheerios'_
 + 1.5 _u'Chicknoodl_Soup'_ + 1.3 _u'Couscous'_
 + 0.5 _u'Crm_Mshrm_Soup,W_Mlk'_ + 8.5 _u'Frozen_Broccoli'_
 + 2 _u'Frozen_Corn'_ + 0.2 _u'Grapes'_ + 2.6 _u'Kiwifruit,Raw,Fresh'_
 + 0.3 _u'Lettuce,Iceberg,Raw'_ + 0.9 _u'Macaroni,Ckd'_
 + 1.5 _u'New_E_Clamchwd,W_Mlk'_ + 1.5 _u'Neweng_Clamchwd'_ + 4 _u'Oatmeal'_
 + 0.6 _u'Oatmeal_Cookies'_ + 3.1 _u'Oranges'_ + 2.1 _u'Peanut_Butter'_
 + 1.3 _u'Peppers,_Sweet,_Raw'_ + 4.3 _u'Popcorn,Air_Popped'_
 + 1.2 _u'Potato_Chips,Bbqflvr'_ + 3.2 _u'Potatoes,_Baked'_
 + 0.9 _u'Pretzels'_ + 0.4 _u'Rice_Krispies'_ + 11.6 _u'Spaghetti_W__Sauce'_
 + 0.7 _u'Special_K'_ + 4.1 _u'Splt_Pea&Hamsoup'_ + 1.4 _u'Tofu'_
 + 1.4 _u'Tomato,Red,Ripe,Raw'_ + _u'Tomato_Soup'_ + 1.8 _u'Tortilla_Chip'_
 + 4 _u'Vegetbeef_Soup'_ + 1.3 _u'Wheat_Bread'_ + 1.1 _u'White_Bread'_
 + 0.3 _u'White_Rice'_ <= 47
DietaryFiberMin: 0.5 _u"Cap'N_Crunch"_ + 0.7 _u"Corn_Flks,_Kellogg'S"_
 + 4 _u"Raisin_Brn,_Kellg'S"_ + 3.7 _u'Apple,Raw,W_Skin'_ + 0.5 _u'Apple_Pie'_
 + 0.6 _u'Bagels'_ + 2.7 _u'Banana'_ + 8.6 _u'Beanbacn_Soup,W_Watr'_
 + 1.6 _u'Carrots,Raw'_ + 0.7 _u'Celery,_Raw'_ + 2 _u'Cheerios'_
 + 1.5 _u'Chicknoodl_Soup'_ + 1.3 _u'Couscous'_
 + 0.5 _u'Crm_Mshrm_Soup,W_Mlk'_ + 8.5 _u'Frozen_Broccoli'_
 + 2 _u'Frozen_Corn'_ + 0.2 _u'Grapes'_ + 2.6 _u'Kiwifruit,Raw,Fresh'_
 + 0.3 _u'Lettuce,Iceberg,Raw'_ + 0.9 _u'Macaroni,Ckd'_
 + 1.5 _u'New_E_Clamchwd,W_Mlk'_ + 1.5 _u'Neweng_Clamchwd'_ + 4 _u'Oatmeal'_
 + 0.6 _u'Oatmeal_Cookies'_ + 3.1 _u'Oranges'_ + 2.1 _u'Peanut_Butter'_
 + 1.3 _u'Peppers,_Sweet,_Raw'_ + 4.3 _u'Popcorn,Air_Popped'_
 + 1.2 _u'Potato_Chips,Bbqflvr'_ + 3.2 _u'Potatoes,_Baked'_
 + 0.9 _u'Pretzels'_ + 0.4 _u'Rice_Krispies'_ + 11.6 _u'Spaghetti_W__Sauce'_
 + 0.7 _u'Special_K'_ + 4.1 _u'Splt_Pea&Hamsoup'_ + 1.4 _u'Tofu'_
 + 1.4 _u'Tomato,Red,Ripe,Raw'_ + _u'Tomato_Soup'_ + 1.8 _u'Tortilla_Chip'_
 + 4 _u'Vegetbeef_Soup'_ + 1.3 _u'Wheat_Bread'_ + 1.1 _u'White_Bread'_
 + 0.3 _u'White_Rice'_ >= 38
ProteinMin: 1.4 _u"Cap'N_Crunch"_ + 2.3 _u"Corn_Flks,_Kellogg'S"_
 + 4 _u"Raisin_Brn,_Kellg'S"_ + 8.1 _u'2%_Lowfat_Milk'_
 + 8 _u'3.3%_Fat,Whole_Milk'_ + 0.3 _u'Apple,Raw,W_Skin'_ + 0.5 _u'Apple_Pie'_
 + 3 _u'Bagels'_ + 1.2 _u'Banana'_ + 7.9 _u'Beanbacn_Soup,W_Watr'_
 + 3.9 _u'Bologna,Turkey'_ + 0.6 _u'Carrots,Raw'_ + 0.3 _u'Celery,_Raw'_
 + 7 _u'Cheddar_Cheese'_ + 4.3 _u'Cheerios'_ + 7.9 _u'Chicknoodl_Soup'_
 + 0.9 _u'Chocolate_Chip_Cookies'_ + 3.4 _u'Couscous'_
 + 6.1 _u'Crm_Mshrm_Soup,W_Mlk'_ + 5.4 _u'Frankfurter,_Beef'_
 + 8 _u'Frozen_Broccoli'_ + 2.5 _u'Frozen_Corn'_ + 0.2 _u'Grapes'_
 + 5.5 _u'Ham,Sliced,Extralean'_ + 13.6 _u'Hamburger_W_Toppings'_
 + 10.4 _u'Hotdog,_Plain'_ + 3.4 _u'Kielbasa,Prk'_
 + 0.8 _u'Kiwifruit,Raw,Fresh'_ + 0.2 _u'Lettuce,Iceberg,Raw'_
 + 3.3 _u'Macaroni,Ckd'_ + 17.3 _u'Malt_O_Meal,Choc'_
 + 9.5 _u'New_E_Clamchwd,W_Mlk'_ + 10.9 _u'Neweng_Clamchwd'_
 + 6.1 _u'Oatmeal'_ + 1.1 _u'Oatmeal_Cookies'_ + 1.2 _u'Oranges'_
 + 7.7 _u'Peanut_Butter'_ + 0.7 _u'Peppers,_Sweet,_Raw'_
 + 10.1 _u'Pizza_W_Pepperoni'_ + 6.2 _u'Poached_Eggs'_
 + 3.4 _u'Popcorn,Air_Popped'_ + 13.8 _u'Pork'_
 + 2.2 _u'Potato_Chips,Bbqflvr'_ + 3.7 _u'Potatoes,_Baked'_
 + 2.6 _u'Pretzels'_ + 1.9 _u'Rice_Krispies'_ + 42.2 _u'Roasted_Chicken'_
 + 5.9 _u'Sardines_in_Oil'_ + 6.7 _u'Scrambled_Eggs'_ + 8.4 _u'Skim_Milk'_
 + 8.2 _u'Spaghetti_W__Sauce'_ + 5.6 _u'Special_K'_
 + 11.1 _u'Splt_Pea&Hamsoup'_ + 20.7 _u'Taco'_ + 9.4 _u'Tofu'_
 + _u'Tomato,Red,Ripe,Raw'_ + 4.1 _u'Tomato_Soup'_ + 2 _u'Tortilla_Chip'_
 + 11.2 _u'Vegetbeef_Soup'_ + 2.2 _u'Wheat_Bread'_ + 2.3 _u'White_Bread'_
 + 2.1 _u'White_Rice'_ + 22.7 _u'White_Tuna_in_Water'_ >= 80
SodiumMax: 213.3 _u"Cap'N_Crunch"_ + 290.5 _u"Corn_Flks,_Kellogg'S"_
 + 204.4 _u"Raisin_Brn,_Kellg'S"_ + 121.8 _u'2%_Lowfat_Milk'_
 + 119.6 _u'3.3%_Fat,Whole_Milk'_ + 75.4 _u'Apple_Pie'_ + 151.4 _u'Bagels'_
 + 1.1 _u'Banana'_ + 951.3 _u'Beanbacn_Soup,W_Watr'_
 + 248.9 _u'Bologna,Turkey'_ + 41.3 _u'Butter,Regular'_
 + 19.2 _u'Carrots,Raw'_ + 34.8 _u'Celery,_Raw'_ + 173.7 _u'Cheddar_Cheese'_
 + 307.6 _u'Cheerios'_ + 1862.2 _u'Chicknoodl_Soup'_
 + 57.8 _u'Chocolate_Chip_Cookies'_ + 4.5 _u'Couscous'_
 + 1076.3 _u'Crm_Mshrm_Soup,W_Mlk'_ + 461.7 _u'Frankfurter,_Beef'_
 + 68.2 _u'Frozen_Broccoli'_ + 2.5 _u'Frozen_Corn'_ + 0.5 _u'Grapes'_
 + 405.1 _u'Ham,Sliced,Extralean'_ + 563.9 _u'Hamburger_W_Toppings'_
 + 670.3 _u'Hotdog,_Plain'_ + 279.8 _u'Kielbasa,Prk'_
 + 3.8 _u'Kiwifruit,Raw,Fresh'_ + 1.8 _u'Lettuce,Iceberg,Raw'_
 + 0.7 _u'Macaroni,Ckd'_ + 16.5 _u'Malt_O_Meal,Choc'_
 + 992 _u'New_E_Clamchwd,W_Mlk'_ + 1864.9 _u'Neweng_Clamchwd'_
 + 2.3 _u'Oatmeal'_ + 68.9 _u'Oatmeal_Cookies'_ + 155.5 _u'Peanut_Butter'_
 + 1.5 _u'Peppers,_Sweet,_Raw'_ + 267 _u'Pizza_W_Pepperoni'_
 + 140 _u'Poached_Eggs'_ + 1.1 _u'Popcorn,Air_Popped'_ + 38.4 _u'Pork'_
 + 212.6 _u'Potato_Chips,Bbqflvr'_ + 15.2 _u'Potatoes,_Baked'_
 + 486.2 _u'Pretzels'_ + 340.8 _u'Rice_Krispies'_ + 125.6 _u'Roasted_Chicken'_
 + 121.2 _u'Sardines_in_Oil'_ + 168 _u'Scrambled_Eggs'_ + 126.2 _u'Skim_Milk'_
 + 1237.1 _u'Spaghetti_W__Sauce'_ + 265.5 _u'Special_K'_
 + 964.8 _u'Splt_Pea&Hamsoup'_ + 802 _u'Taco'_ + 8.1 _u'Tofu'_
 + 11.1 _u'Tomato,Red,Ripe,Raw'_ + 1744.4 _u'Tomato_Soup'_
 + 149.7 _u'Tortilla_Chip'_ + 1915.1 _u'Vegetbeef_Soup'_
 + 134.5 _u'Wheat_Bread'_ + 132.5 _u'White_Bread'_ + 0.8 _u'White_Rice'_
 + 333.2 _u'White_Tuna_in_Water'_ <= 2300
SodiumMin: 213.3 _u"Cap'N_Crunch"_ + 290.5 _u"Corn_Flks,_Kellogg'S"_
 + 204.4 _u"Raisin_Brn,_Kellg'S"_ + 121.8 _u'2%_Lowfat_Milk'_
 + 119.6 _u'3.3%_Fat,Whole_Milk'_ + 75.4 _u'Apple_Pie'_ + 151.4 _u'Bagels'_
 + 1.1 _u'Banana'_ + 951.3 _u'Beanbacn_Soup,W_Watr'_
 + 248.9 _u'Bologna,Turkey'_ + 41.3 _u'Butter,Regular'_
 + 19.2 _u'Carrots,Raw'_ + 34.8 _u'Celery,_Raw'_ + 173.7 _u'Cheddar_Cheese'_
 + 307.6 _u'Cheerios'_ + 1862.2 _u'Chicknoodl_Soup'_
 + 57.8 _u'Chocolate_Chip_Cookies'_ + 4.5 _u'Couscous'_
 + 1076.3 _u'Crm_Mshrm_Soup,W_Mlk'_ + 461.7 _u'Frankfurter,_Beef'_
 + 68.2 _u'Frozen_Broccoli'_ + 2.5 _u'Frozen_Corn'_ + 0.5 _u'Grapes'_
 + 405.1 _u'Ham,Sliced,Extralean'_ + 563.9 _u'Hamburger_W_Toppings'_
 + 670.3 _u'Hotdog,_Plain'_ + 279.8 _u'Kielbasa,Prk'_
 + 3.8 _u'Kiwifruit,Raw,Fresh'_ + 1.8 _u'Lettuce,Iceberg,Raw'_
 + 0.7 _u'Macaroni,Ckd'_ + 16.5 _u'Malt_O_Meal,Choc'_
 + 992 _u'New_E_Clamchwd,W_Mlk'_ + 1864.9 _u'Neweng_Clamchwd'_
 + 2.3 _u'Oatmeal'_ + 68.9 _u'Oatmeal_Cookies'_ + 155.5 _u'Peanut_Butter'_
 + 1.5 _u'Peppers,_Sweet,_Raw'_ + 267 _u'Pizza_W_Pepperoni'_
 + 140 _u'Poached_Eggs'_ + 1.1 _u'Popcorn,Air_Popped'_ + 38.4 _u'Pork'_
 + 212.6 _u'Potato_Chips,Bbqflvr'_ + 15.2 _u'Potatoes,_Baked'_
 + 486.2 _u'Pretzels'_ + 340.8 _u'Rice_Krispies'_ + 125.6 _u'Roasted_Chicken'_
 + 121.2 _u'Sardines_in_Oil'_ + 168 _u'Scrambled_Eggs'_ + 126.2 _u'Skim_Milk'_
 + 1237.1 _u'Spaghetti_W__Sauce'_ + 265.5 _u'Special_K'_
 + 964.8 _u'Splt_Pea&Hamsoup'_ + 802 _u'Taco'_ + 8.1 _u'Tofu'_
 + 11.1 _u'Tomato,Red,Ripe,Raw'_ + 1744.4 _u'Tomato_Soup'_
 + 149.7 _u'Tortilla_Chip'_ + 1915.1 _u'Vegetbeef_Soup'_
 + 134.5 _u'Wheat_Bread'_ + 132.5 _u'White_Bread'_ + 0.8 _u'White_Rice'_
 + 333.2 _u'White_Tuna_in_Water'_ >= 1500
TotalFatMax: 2.6 _u"Cap'N_Crunch"_ + 0.1 _u"Corn_Flks,_Kellogg'S"_
 + 0.7 _u"Raisin_Brn,_Kellg'S"_ + 4.7 _u'2%_Lowfat_Milk'_
 + 8.1 _u'3.3%_Fat,Whole_Milk'_ + 0.5 _u'Apple,Raw,W_Skin'_
 + 3.1 _u'Apple_Pie'_ + 0.5 _u'Bagels'_ + 0.5 _u'Banana'_
 + 5.9 _u'Beanbacn_Soup,W_Watr'_ + 4.3 _u'Bologna,Turkey'_
 + 4.1 _u'Butter,Regular'_ + 0.1 _u'Carrots,Raw'_ + 0.1 _u'Celery,_Raw'_
 + 9.3 _u'Cheddar_Cheese'_ + 1.8 _u'Cheerios'_ + 4.6 _u'Chicknoodl_Soup'_
 + 4.5 _u'Chocolate_Chip_Cookies'_ + 0.1 _u'Couscous'_
 + 13.6 _u'Crm_Mshrm_Soup,W_Mlk'_ + 12.8 _u'Frankfurter,_Beef'_
 + 0.8 _u'Frozen_Broccoli'_ + 0.6 _u'Frozen_Corn'_ + 0.1 _u'Grapes'_
 + 1.4 _u'Ham,Sliced,Extralean'_ + 10.2 _u'Hamburger_W_Toppings'_
 + 14.5 _u'Hotdog,_Plain'_ + 7.1 _u'Kielbasa,Prk'_
 + 0.3 _u'Kiwifruit,Raw,Fresh'_ + 0.5 _u'Macaroni,Ckd'_
 + 1.5 _u'Malt_O_Meal,Choc'_ + 6.6 _u'New_E_Clamchwd,W_Mlk'_
 + 5 _u'Neweng_Clamchwd'_ + 2.3 _u'Oatmeal'_ + 3.3 _u'Oatmeal_Cookies'_
 + 0.2 _u'Oranges'_ + 16 _u'Peanut_Butter'_ + 0.1 _u'Peppers,_Sweet,_Raw'_
 + 7 _u'Pizza_W_Pepperoni'_ + 5 _u'Poached_Eggs'_
 + 1.2 _u'Popcorn,Air_Popped'_ + 72.2 _u'Pork'_
 + 9.2 _u'Potato_Chips,Bbqflvr'_ + 0.2 _u'Potatoes,_Baked'_ + _u'Pretzels'_
 + 0.2 _u'Rice_Krispies'_ + 10.8 _u'Roasted_Chicken'_
 + 2.7 _u'Sardines_in_Oil'_ + 7.3 _u'Scrambled_Eggs'_ + 0.4 _u'Skim_Milk'_
 + 12.3 _u'Spaghetti_W__Sauce'_ + 0.1 _u'Special_K'_ + 4 _u'Splt_Pea&Hamsoup'_
 + 20.6 _u'Taco'_ + 5.5 _u'Tofu'_ + 0.4 _u'Tomato,Red,Ripe,Raw'_
 + 3.8 _u'Tomato_Soup'_ + 7.4 _u'Tortilla_Chip'_ + 3.8 _u'Vegetbeef_Soup'_
 + _u'Wheat_Bread'_ + _u'White_Bread'_ + 0.2 _u'White_Rice'_
 + 2.1 _u'White_Tuna_in_Water'_ <= 78
TotalFatMin: 2.6 _u"Cap'N_Crunch"_ + 0.1 _u"Corn_Flks,_Kellogg'S"_
 + 0.7 _u"Raisin_Brn,_Kellg'S"_ + 4.7 _u'2%_Lowfat_Milk'_
 + 8.1 _u'3.3%_Fat,Whole_Milk'_ + 0.5 _u'Apple,Raw,W_Skin'_
 + 3.1 _u'Apple_Pie'_ + 0.5 _u'Bagels'_ + 0.5 _u'Banana'_
 + 5.9 _u'Beanbacn_Soup,W_Watr'_ + 4.3 _u'Bologna,Turkey'_
 + 4.1 _u'Butter,Regular'_ + 0.1 _u'Carrots,Raw'_ + 0.1 _u'Celery,_Raw'_
 + 9.3 _u'Cheddar_Cheese'_ + 1.8 _u'Cheerios'_ + 4.6 _u'Chicknoodl_Soup'_
 + 4.5 _u'Chocolate_Chip_Cookies'_ + 0.1 _u'Couscous'_
 + 13.6 _u'Crm_Mshrm_Soup,W_Mlk'_ + 12.8 _u'Frankfurter,_Beef'_
 + 0.8 _u'Frozen_Broccoli'_ + 0.6 _u'Frozen_Corn'_ + 0.1 _u'Grapes'_
 + 1.4 _u'Ham,Sliced,Extralean'_ + 10.2 _u'Hamburger_W_Toppings'_
 + 14.5 _u'Hotdog,_Plain'_ + 7.1 _u'Kielbasa,Prk'_
 + 0.3 _u'Kiwifruit,Raw,Fresh'_ + 0.5 _u'Macaroni,Ckd'_
 + 1.5 _u'Malt_O_Meal,Choc'_ + 6.6 _u'New_E_Clamchwd,W_Mlk'_
 + 5 _u'Neweng_Clamchwd'_ + 2.3 _u'Oatmeal'_ + 3.3 _u'Oatmeal_Cookies'_
 + 0.2 _u'Oranges'_ + 16 _u'Peanut_Butter'_ + 0.1 _u'Peppers,_Sweet,_Raw'_
 + 7 _u'Pizza_W_Pepperoni'_ + 5 _u'Poached_Eggs'_
 + 1.2 _u'Popcorn,Air_Popped'_ + 72.2 _u'Pork'_
 + 9.2 _u'Potato_Chips,Bbqflvr'_ + 0.2 _u'Potatoes,_Baked'_ + _u'Pretzels'_
 + 0.2 _u'Rice_Krispies'_ + 10.8 _u'Roasted_Chicken'_
 + 2.7 _u'Sardines_in_Oil'_ + 7.3 _u'Scrambled_Eggs'_ + 0.4 _u'Skim_Milk'_
 + 12.3 _u'Spaghetti_W__Sauce'_ + 0.1 _u'Special_K'_ + 4 _u'Splt_Pea&Hamsoup'_
 + 20.6 _u'Taco'_ + 5.5 _u'Tofu'_ + 0.4 _u'Tomato,Red,Ripe,Raw'_
 + 3.8 _u'Tomato_Soup'_ + 7.4 _u'Tortilla_Chip'_ + 3.8 _u'Vegetbeef_Soup'_
 + _u'Wheat_Bread'_ + _u'White_Bread'_ + 0.2 _u'White_Rice'_
 + 2.1 _u'White_Tuna_in_Water'_ >= 44
VitAMax: 40.6 _u"Cap'N_Crunch"_ + 1252.2 _u"Corn_Flks,_Kellogg'S"_
 + 1250.2 _u"Raisin_Brn,_Kellg'S"_ + 500.2 _u'2%_Lowfat_Milk'_
 + 307.4 _u'3.3%_Fat,Whole_Milk'_ + 73.1 _u'Apple,Raw,W_Skin'_
 + 35.2 _u'Apple_Pie'_ + 92.3 _u'Banana'_ + 888 _u'Beanbacn_Soup,W_Watr'_
 + 152.9 _u'Butter,Regular'_ + 15471 _u'Carrots,Raw'_ + 53.6 _u'Celery,_Raw'_
 + 296.5 _u'Cheddar_Cheese'_ + 1252.2 _u'Cheerios'_
 + 1308.7 _u'Chicknoodl_Soup'_ + 101.8 _u'Chocolate_Chip_Cookies'_
 + 153.8 _u'Crm_Mshrm_Soup,W_Mlk'_ + 5867.4 _u'Frozen_Broccoli'_
 + 106.6 _u'Frozen_Corn'_ + 24 _u'Grapes'_ + 126.3 _u'Hamburger_W_Toppings'_
 + 133 _u'Kiwifruit,Raw,Fresh'_ + 66 _u'Lettuce,Iceberg,Raw'_
 + 163.7 _u'New_E_Clamchwd,W_Mlk'_ + 20.1 _u'Neweng_Clamchwd'_
 + 37.4 _u'Oatmeal'_ + 2.9 _u'Oatmeal_Cookies'_ + 268.6 _u'Oranges'_
 + 467.7 _u'Peppers,_Sweet,_Raw'_ + 281.9 _u'Pizza_W_Pepperoni'_
 + 316 _u'Poached_Eggs'_ + 55.6 _u'Popcorn,Air_Popped'_ + 14.7 _u'Pork'_
 + 61.5 _u'Potato_Chips,Bbqflvr'_ + 1252.2 _u'Rice_Krispies'_
 + 77.4 _u'Roasted_Chicken'_ + 53.8 _u'Sardines_in_Oil'_
 + 409.2 _u'Scrambled_Eggs'_ + 499.8 _u'Skim_Milk'_
 + 3055.2 _u'Spaghetti_W__Sauce'_ + 1252.2 _u'Special_K'_
 + 4872 _u'Splt_Pea&Hamsoup'_ + 855 _u'Taco'_ + 98.6 _u'Tofu'_
 + 766.3 _u'Tomato,Red,Ripe,Raw'_ + 1393 _u'Tomato_Soup'_
 + 55.6 _u'Tortilla_Chip'_ + 3785.1 _u'Vegetbeef_Soup'_
 + 68 _u'White_Tuna_in_Water'_ <= 3000
VitAMin: 40.6 _u"Cap'N_Crunch"_ + 1252.2 _u"Corn_Flks,_Kellogg'S"_
 + 1250.2 _u"Raisin_Brn,_Kellg'S"_ + 500.2 _u'2%_Lowfat_Milk'_
 + 307.4 _u'3.3%_Fat,Whole_Milk'_ + 73.1 _u'Apple,Raw,W_Skin'_
 + 35.2 _u'Apple_Pie'_ + 92.3 _u'Banana'_ + 888 _u'Beanbacn_Soup,W_Watr'_
 + 152.9 _u'Butter,Regular'_ + 15471 _u'Carrots,Raw'_ + 53.6 _u'Celery,_Raw'_
 + 296.5 _u'Cheddar_Cheese'_ + 1252.2 _u'Cheerios'_
 + 1308.7 _u'Chicknoodl_Soup'_ + 101.8 _u'Chocolate_Chip_Cookies'_
 + 153.8 _u'Crm_Mshrm_Soup,W_Mlk'_ + 5867.4 _u'Frozen_Broccoli'_
 + 106.6 _u'Frozen_Corn'_ + 24 _u'Grapes'_ + 126.3 _u'Hamburger_W_Toppings'_
 + 133 _u'Kiwifruit,Raw,Fresh'_ + 66 _u'Lettuce,Iceberg,Raw'_
 + 163.7 _u'New_E_Clamchwd,W_Mlk'_ + 20.1 _u'Neweng_Clamchwd'_
 + 37.4 _u'Oatmeal'_ + 2.9 _u'Oatmeal_Cookies'_ + 268.6 _u'Oranges'_
 + 467.7 _u'Peppers,_Sweet,_Raw'_ + 281.9 _u'Pizza_W_Pepperoni'_
 + 316 _u'Poached_Eggs'_ + 55.6 _u'Popcorn,Air_Popped'_ + 14.7 _u'Pork'_
 + 61.5 _u'Potato_Chips,Bbqflvr'_ + 1252.2 _u'Rice_Krispies'_
 + 77.4 _u'Roasted_Chicken'_ + 53.8 _u'Sardines_in_Oil'_
 + 409.2 _u'Scrambled_Eggs'_ + 499.8 _u'Skim_Milk'_
 + 3055.2 _u'Spaghetti_W__Sauce'_ + 1252.2 _u'Special_K'_
 + 4872 _u'Splt_Pea&Hamsoup'_ + 855 _u'Taco'_ + 98.6 _u'Tofu'_
 + 766.3 _u'Tomato,Red,Ripe,Raw'_ + 1393 _u'Tomato_Soup'_
 + 55.6 _u'Tortilla_Chip'_ + 3785.1 _u'Vegetbeef_Soup'_
 + 68 _u'White_Tuna_in_Water'_ >= 900
VitCMax: 15.1 _u"Corn_Flks,_Kellogg'S"_ + 2.3 _u'2%_Lowfat_Milk'_
 + 2.3 _u'3.3%_Fat,Whole_Milk'_ + 7.9 _u'Apple,Raw,W_Skin'_
 + 0.9 _u'Apple_Pie'_ + 10.4 _u'Banana'_ + 1.5 _u'Beanbacn_Soup,W_Watr'_
 + 5.1 _u'Carrots,Raw'_ + 2.8 _u'Celery,_Raw'_ + 15.1 _u'Cheerios'_
 + 2.2 _u'Crm_Mshrm_Soup,W_Mlk'_ + 10.8 _u'Frankfurter,_Beef'_
 + 160.2 _u'Frozen_Broccoli'_ + 5.2 _u'Frozen_Corn'_ + _u'Grapes'_
 + 7.4 _u'Ham,Sliced,Extralean'_ + 2.6 _u'Hamburger_W_Toppings'_
 + 0.1 _u'Hotdog,_Plain'_ + 5.5 _u'Kielbasa,Prk'_
 + 74.5 _u'Kiwifruit,Raw,Fresh'_ + 0.8 _u'Lettuce,Iceberg,Raw'_
 + 3.5 _u'New_E_Clamchwd,W_Mlk'_ + 4.8 _u'Neweng_Clamchwd'_
 + 0.1 _u'Oatmeal_Cookies'_ + 69.7 _u'Oranges'_
 + 66.1 _u'Peppers,_Sweet,_Raw'_ + 1.6 _u'Pizza_W_Pepperoni'_
 + 9.6 _u'Potato_Chips,Bbqflvr'_ + 15.6 _u'Potatoes,_Baked'_
 + 15.1 _u'Rice_Krispies'_ + 0.1 _u'Scrambled_Eggs'_ + 2.4 _u'Skim_Milk'_
 + 27.9 _u'Spaghetti_W__Sauce'_ + 15.1 _u'Special_K'_
 + 7 _u'Splt_Pea&Hamsoup'_ + 2.2 _u'Taco'_ + 0.1 _u'Tofu'_
 + 23.5 _u'Tomato,Red,Ripe,Raw'_ + 133 _u'Tomato_Soup'_
 + 4.8 _u'Vegetbeef_Soup'_ <= 2000
VitCMin: 15.1 _u"Corn_Flks,_Kellogg'S"_ + 2.3 _u'2%_Lowfat_Milk'_
 + 2.3 _u'3.3%_Fat,Whole_Milk'_ + 7.9 _u'Apple,Raw,W_Skin'_
 + 0.9 _u'Apple_Pie'_ + 10.4 _u'Banana'_ + 1.5 _u'Beanbacn_Soup,W_Watr'_
 + 5.1 _u'Carrots,Raw'_ + 2.8 _u'Celery,_Raw'_ + 15.1 _u'Cheerios'_
 + 2.2 _u'Crm_Mshrm_Soup,W_Mlk'_ + 10.8 _u'Frankfurter,_Beef'_
 + 160.2 _u'Frozen_Broccoli'_ + 5.2 _u'Frozen_Corn'_ + _u'Grapes'_
 + 7.4 _u'Ham,Sliced,Extralean'_ + 2.6 _u'Hamburger_W_Toppings'_
 + 0.1 _u'Hotdog,_Plain'_ + 5.5 _u'Kielbasa,Prk'_
 + 74.5 _u'Kiwifruit,Raw,Fresh'_ + 0.8 _u'Lettuce,Iceberg,Raw'_
 + 3.5 _u'New_E_Clamchwd,W_Mlk'_ + 4.8 _u'Neweng_Clamchwd'_
 + 0.1 _u'Oatmeal_Cookies'_ + 69.7 _u'Oranges'_
 + 66.1 _u'Peppers,_Sweet,_Raw'_ + 1.6 _u'Pizza_W_Pepperoni'_
 + 9.6 _u'Potato_Chips,Bbqflvr'_ + 15.6 _u'Potatoes,_Baked'_
 + 15.1 _u'Rice_Krispies'_ + 0.1 _u'Scrambled_Eggs'_ + 2.4 _u'Skim_Milk'_
 + 27.9 _u'Spaghetti_W__Sauce'_ + 15.1 _u'Special_K'_
 + 7 _u'Splt_Pea&Hamsoup'_ + 2.2 _u'Taco'_ + 0.1 _u'Tofu'_
 + 23.5 _u'Tomato,Red,Ripe,Raw'_ + 133 _u'Tomato_Soup'_
 + 4.8 _u'Vegetbeef_Soup'_ >= 90
ironMax: 7.5 _u"Cap'N_Crunch"_ + 1.8 _u"Corn_Flks,_Kellogg'S"_
 + 16.8 _u"Raisin_Brn,_Kellg'S"_ + 0.1 _u'2%_Lowfat_Milk'_
 + 0.1 _u'3.3%_Fat,Whole_Milk'_ + 0.2 _u'Apple,Raw,W_Skin'_
 + 0.1 _u'Apple_Pie'_ + _u'Bagels'_ + 0.4 _u'Banana'_
 + 2 _u'Beanbacn_Soup,W_Watr'_ + 0.4 _u'Bologna,Turkey'_
 + 0.3 _u'Carrots,Raw'_ + 0.2 _u'Celery,_Raw'_ + 0.2 _u'Cheddar_Cheese'_
 + 4.5 _u'Cheerios'_ + 1.5 _u'Chicknoodl_Soup'_
 + 0.4 _u'Chocolate_Chip_Cookies'_ + 0.3 _u'Couscous'_
 + 0.6 _u'Crm_Mshrm_Soup,W_Mlk'_ + 0.6 _u'Frankfurter,_Beef'_
 + 2.3 _u'Frozen_Broccoli'_ + 0.3 _u'Frozen_Corn'_ + 0.1 _u'Grapes'_
 + 0.2 _u'Ham,Sliced,Extralean'_ + 2.5 _u'Hamburger_W_Toppings'_
 + 2.3 _u'Hotdog,_Plain'_ + 0.4 _u'Kielbasa,Prk'_
 + 0.3 _u'Kiwifruit,Raw,Fresh'_ + 0.1 _u'Lettuce,Iceberg,Raw'_
 + _u'Macaroni,Ckd'_ + 4.7 _u'Malt_O_Meal,Choc'_
 + 1.5 _u'New_E_Clamchwd,W_Mlk'_ + 2.8 _u'Neweng_Clamchwd'_ + 1.6 _u'Oatmeal'_
 + 0.5 _u'Oatmeal_Cookies'_ + 0.1 _u'Oranges'_ + 0.6 _u'Peanut_Butter'_
 + 0.3 _u'Peppers,_Sweet,_Raw'_ + 0.9 _u'Pizza_W_Pepperoni'_
 + 0.7 _u'Poached_Eggs'_ + 0.8 _u'Popcorn,Air_Popped'_ + 0.4 _u'Pork'_
 + 0.5 _u'Potato_Chips,Bbqflvr'_ + 4.3 _u'Potatoes,_Baked'_
 + 1.2 _u'Pretzels'_ + 1.8 _u'Rice_Krispies'_ + 1.8 _u'Roasted_Chicken'_
 + 0.7 _u'Sardines_in_Oil'_ + 0.7 _u'Scrambled_Eggs'_ + 0.1 _u'Skim_Milk'_
 + 2.3 _u'Spaghetti_W__Sauce'_ + 4.5 _u'Special_K'_
 + 2.1 _u'Splt_Pea&Hamsoup'_ + 2.4 _u'Taco'_ + 6.2 _u'Tofu'_
 + 0.6 _u'Tomato,Red,Ripe,Raw'_ + 3.5 _u'Tomato_Soup'_
 + 0.4 _u'Tortilla_Chip'_ + 2.2 _u'Vegetbeef_Soup'_ + 0.7 _u'Wheat_Bread'_
 + 0.8 _u'White_Bread'_ + 0.9 _u'White_Rice'_ + 0.5 _u'White_Tuna_in_Water'_
 <= 45
ironMin: 7.5 _u"Cap'N_Crunch"_ + 1.8 _u"Corn_Flks,_Kellogg'S"_
 + 16.8 _u"Raisin_Brn,_Kellg'S"_ + 0.1 _u'2%_Lowfat_Milk'_
 + 0.1 _u'3.3%_Fat,Whole_Milk'_ + 0.2 _u'Apple,Raw,W_Skin'_
 + 0.1 _u'Apple_Pie'_ + _u'Bagels'_ + 0.4 _u'Banana'_
 + 2 _u'Beanbacn_Soup,W_Watr'_ + 0.4 _u'Bologna,Turkey'_
 + 0.3 _u'Carrots,Raw'_ + 0.2 _u'Celery,_Raw'_ + 0.2 _u'Cheddar_Cheese'_
 + 4.5 _u'Cheerios'_ + 1.5 _u'Chicknoodl_Soup'_
 + 0.4 _u'Chocolate_Chip_Cookies'_ + 0.3 _u'Couscous'_
 + 0.6 _u'Crm_Mshrm_Soup,W_Mlk'_ + 0.6 _u'Frankfurter,_Beef'_
 + 2.3 _u'Frozen_Broccoli'_ + 0.3 _u'Frozen_Corn'_ + 0.1 _u'Grapes'_
 + 0.2 _u'Ham,Sliced,Extralean'_ + 2.5 _u'Hamburger_W_Toppings'_
 + 2.3 _u'Hotdog,_Plain'_ + 0.4 _u'Kielbasa,Prk'_
 + 0.3 _u'Kiwifruit,Raw,Fresh'_ + 0.1 _u'Lettuce,Iceberg,Raw'_
 + _u'Macaroni,Ckd'_ + 4.7 _u'Malt_O_Meal,Choc'_
 + 1.5 _u'New_E_Clamchwd,W_Mlk'_ + 2.8 _u'Neweng_Clamchwd'_ + 1.6 _u'Oatmeal'_
 + 0.5 _u'Oatmeal_Cookies'_ + 0.1 _u'Oranges'_ + 0.6 _u'Peanut_Butter'_
 + 0.3 _u'Peppers,_Sweet,_Raw'_ + 0.9 _u'Pizza_W_Pepperoni'_
 + 0.7 _u'Poached_Eggs'_ + 0.8 _u'Popcorn,Air_Popped'_ + 0.4 _u'Pork'_
 + 0.5 _u'Potato_Chips,Bbqflvr'_ + 4.3 _u'Potatoes,_Baked'_
 + 1.2 _u'Pretzels'_ + 1.8 _u'Rice_Krispies'_ + 1.8 _u'Roasted_Chicken'_
 + 0.7 _u'Sardines_in_Oil'_ + 0.7 _u'Scrambled_Eggs'_ + 0.1 _u'Skim_Milk'_
 + 2.3 _u'Spaghetti_W__Sauce'_ + 4.5 _u'Special_K'_
 + 2.1 _u'Splt_Pea&Hamsoup'_ + 2.4 _u'Taco'_ + 6.2 _u'Tofu'_
 + 0.6 _u'Tomato,Red,Ripe,Raw'_ + 3.5 _u'Tomato_Soup'_
 + 0.4 _u'Tortilla_Chip'_ + 2.2 _u'Vegetbeef_Soup'_ + 0.7 _u'Wheat_Bread'_
 + 0.8 _u'White_Bread'_ + 0.9 _u'White_Rice'_ + 0.5 _u'White_Tuna_in_Water'_
 >= 18
End
